networks/zoo_110_2376/zoo_110_2376.txt
Number of groups: 64.999999998999996
Flow 68: {26 32} 
Flow 77: {1 26} {26 34} {34 89} 
Flow 84: {33 30} {30 41} {41 96} 
Flow 94: {54 52} 
Flow 98: {3 26} {26 1} {1 56} 
Flow 128: {25 37} {37 92} 
Flow 187: {2 47} {47 102} 
Flow 195: {4 3} {3 46} {46 55} {55 110} 
Flow 201: {6 7} {7 62} 
Flow 281: {10 39} {39 42} {42 43} {43 98} 
Flow 370: {5 6} {6 32} {32 33} 
Flow 375: {8 9} {9 38} {38 93} 
Flow 381: {38 45} {45 44} {44 99} 
Flow 585: {13 27} {27 34} {34 33} {33 35} 
Flow 669: {12 20} {20 19} {19 74} 
Flow 688: {17 25} {25 42} {42 39} {39 40} {40 95} 
Flow 725: {16 29} {29 28} {28 31} {31 86} 
Flow 769: {39 14} {14 35} {35 33} {33 88} 
Flow 809: {18 19} {19 21} {21 22} {22 24} {24 79} 
Flow 813: {22 23} {23 31} {31 28} {28 83} 
Flow 850: {19 20} {20 11} {11 66} 
Flow 852: {20 12} {12 15} {15 16} {16 71} 
Flow 883: {51 52} {52 107} 
Flow 970: {43 44} {44 45} {45 100} 
Flow 1003: {28 29} {29 84} 
Flow 1059: {21 19} {19 18} {18 17} {17 36} 
Flow 1090: {24 15} {15 12} {12 11} {11 17} {17 72} 
Flow 1183: {7 14} {14 69} 
Flow 1222: {27 13} {13 1} {1 4} {4 2} {2 57} 
Flow 1230: {32 6} {6 5} {5 10} {10 65} 
Flow 1242: {27 26} {26 81} 
Flow 1287: {29 16} {16 15} {15 24} {24 22} {22 77} 
Flow 1311: {31 23} {23 22} {22 21} {21 20} {20 75} 
Flow 1384: {30 14} {14 39} 
Flow 1404: {33 32} {32 7} {7 55} {55 46} {46 101} 
Flow 1454: {34 26} {26 3} {3 47} 
Flow 1477: {35 30} {30 85} 
Flow 1486: {35 14} {14 51} {51 54} {54 109} 
Flow 1498: {36 17} {17 11} {11 12} {12 67} 
Flow 1504: {11 20} {20 21} {21 76} 
Flow 1517: {36 37} 
Flow 1522: {36 42} {42 97} 
Flow 1550: {37 25} {25 17} {17 18} {18 73} 
Flow 1566: {37 36} {36 91} 
Flow 1685: {40 14} {14 10} {10 9} {9 64} 
Flow 1738: {30 33} {33 34} {34 27} {27 82} 
Flow 1745: {41 30} {30 35} {35 90} 
Flow 1748: {41 40} {40 39} {39 94} 
Flow 1770: {39 10} {10 5} {5 8} {8 63} 
Flow 1874: {44 43} {43 42} {42 25} {25 80} 
Flow 1907: {45 38} {38 9} {9 8} {8 5} {5 60} 
Flow 1924: {9 10} {10 14} {14 30} 
Flow 1993: {47 2} {2 4} {4 1} 
Flow 1995: {47 3} {3 58} 
Flow 2032: {46 54} {54 51} {51 106} 
Flow 2078: {48 49} {49 104} 
Flow 2082: {48 50} {50 51} {51 53} {53 108} 
Flow 2139: {50 49} {49 7} {7 6} {6 61} 
Flow 2205: {14 7} {7 32} {32 26} {26 27} 
Flow 2213: {42 36} 
Flow 2235: {52 54} {54 46} {46 3} {3 4} {4 59} 
Flow 2267: {51 14} {14 40} {40 41} 
Flow 2273: {52 51} {51 50} {50 48} {48 103} 
Flow 2370: {49 48} 
Flow 2372: {55 7} {7 49} {49 50} {50 105} 
Time taken running everything: 613 seconds
