networks/zoo_110_2376/zoo_110_2376.sol
<?xml version = "1.0" encoding="UTF-8" standalone="yes"?>
<CPLEXSolution version="1.2">
 <header
   problemName="networks/zoo_110_2376/zoo_110_2376.lp"
   solutionName="incumbent"
   solutionIndex="-1"
   objectiveValue="64.999999998999996"
   solutionTypeValue="3"
   solutionTypeString="primal"
   solutionStatusValue="107"
   solutionStatusString="time limit exceeded"
   solutionMethodString="mip"
   primalFeasible="1"
   dualFeasible="0"
   MIPNodes="788"
   MIPIterations="487062"
   writeLevel="3"/>
 <quality
   epInt="1.0000000000000001e-05"
   epRHS="9.9999999999999995e-07"
   maxIntInfeas="1.0285705620560748e-09"
   maxPrimalInfeas="6.000000496442226e-09"
   maxX="4"
   maxSlack="10"/>
 <variables>
  <variable name="Y(68,26)" index="7127" value="1"/>
  <variable name="Y(77,34)" index="8089" value="1"/>
  <variable name="Y(84,41)" index="8838" value="1"/>
  <variable name="Y(94,54)" index="9911" value="1"/>
  <variable name="Y(98,1)" index="10282" value="1"/>
  <variable name="Y(128,37)" index="13498" value="1"/>
  <variable name="Y(187,47)" index="19762" value="1"/>
  <variable name="Y(195,55)" index="20618" value="1"/>
  <variable name="Y(201,7)" index="21206" value="1"/>
  <variable name="Y(281,43)" index="29722" value="1"/>
  <variable name="Y(370,32)" index="39145" value="1"/>
  <variable name="Y(375,38)" index="39681" value="1"/>
  <variable name="Y(381,44)" index="40323" value="1"/>
  <variable name="Y(458,33)" index="48474" value="-2.6187806776637577e-12"/>
  <variable name="Y(585,33)" index="61936" value="1"/>
  <variable name="Y(669,19)" index="70826" value="1"/>
  <variable name="Y(688,40)" index="72861" value="1"/>
  <variable name="Y(719,25)" index="76132" value="-2.5714263352936935e-10"/>
  <variable name="Y(725,31)" index="76774" value="1"/>
  <variable name="Y(749,7)" index="79294" value="-9.1930342794446313e-11"/>
  <variable name="Y(769,33)" index="81440" value="1"/>
  <variable name="Y(809,24)" index="85671" value="1"/>
  <variable name="Y(813,28)" index="86099" value="1"/>
  <variable name="Y(850,11)" index="90004" value="1"/>
  <variable name="Y(852,16)" index="90221" value="1"/>
  <variable name="Y(867,34)" index="91829" value="-1.1638928245417149e-12"/>
  <variable name="Y(883,52)" index="93543" value="1"/>
  <variable name="Y(922,42)" index="97667" value="2.8570451377106284e-11"/>
  <variable name="Y(970,45)" index="102758" value="1"/>
  <variable name="Y(1003,29)" index="106240" value="1"/>
  <variable name="Y(1059,17)" index="112164" value="1"/>
  <variable name="Y(1090,17)" index="115450" value="1"/>
  <variable name="Y(1183,14)" index="125305" value="1"/>
  <variable name="Y(1222,2)" index="129427" value="1"/>
  <variable name="Y(1230,10)" index="130283" value="1"/>
  <variable name="Y(1242,26)" index="131571" value="1"/>
  <variable name="Y(1287,22)" index="136337" value="1"/>
  <variable name="Y(1311,20)" index="138879" value="1"/>
  <variable name="Y(1384,14)" index="146611" value="1"/>
  <variable name="Y(1404,46)" index="148763" value="1"/>
  <variable name="Y(1454,3)" index="154020" value="1"/>
  <variable name="Y(1477,30)" index="156485" value="1"/>
  <variable name="Y(1479,34)" index="156701" value="1.1638928245417149e-12"/>
  <variable name="Y(1486,54)" index="157463" value="1"/>
  <variable name="Y(1498,12)" index="158693" value="1"/>
  <variable name="Y(1504,21)" index="159338" value="1"/>
  <variable name="Y(1517,36)" index="160731" value="1"/>
  <variable name="Y(1522,42)" index="161267" value="0.99999999997142952"/>
  <variable name="Y(1531,51)" index="162230" value="-2.0951711972533988e-10"/>
  <variable name="Y(1550,18)" index="164211" value="1"/>
  <variable name="Y(1556,25)" index="164854" value="2.5714263352936935e-10"/>
  <variable name="Y(1566,36)" index="165925" value="1"/>
  <variable name="Y(1614,10)" index="170987" value="-1.000000082740371e-09"/>
  <variable name="Y(1685,9)" index="178512" value="1"/>
  <variable name="Y(1738,27)" index="184148" value="1"/>
  <variable name="Y(1745,35)" index="184898" value="1"/>
  <variable name="Y(1748,39)" index="185220" value="1"/>
  <variable name="Y(1770,8)" index="187521" value="1"/>
  <variable name="Y(1874,25)" index="198562" value="1"/>
  <variable name="Y(1907,5)" index="202040" value="1"/>
  <variable name="Y(1924,14)" index="203851" value="1"/>
  <variable name="Y(1993,4)" index="211155" value="1"/>
  <variable name="Y(1995,3)" index="211366" value="1"/>
  <variable name="Y(2032,51)" index="215336" value="1"/>
  <variable name="Y(2078,49)" index="220210" value="1.0000000000919302"/>
  <variable name="Y(2082,53)" index="220638" value="1"/>
  <variable name="Y(2139,6)" index="226633" value="1"/>
  <variable name="Y(2140,7)" index="226740" value="9.1930342794446313e-11"/>
  <variable name="Y(2205,26)" index="233649" value="1"/>
  <variable name="Y(2213,42)" index="234513" value="1"/>
  <variable name="Y(2226,49)" index="235898" value="-9.1930342794446313e-11"/>
  <variable name="Y(2235,4)" index="236807" value="1"/>
  <variable name="Y(2259,33)" index="239380" value="2.6187806776637577e-12"/>
  <variable name="Y(2267,40)" index="240235" value="1"/>
  <variable name="Y(2273,48)" index="240879" value="1"/>
  <variable name="Y(2276,51)" index="241200" value="2.0951711972533988e-10"/>
  <variable name="Y(2370,49)" index="251162" value="1"/>
  <variable name="Y(2372,50)" index="251375" value="1"/>
  <variable name="X(1,4,1222)" index="253077" value="1"/>
  <variable name="X(1,26,77)" index="254308" value="1"/>
  <variable name="X(1,56,98)" index="256705" value="1"/>
  <variable name="X(2,4,1993)" index="260976" value="1"/>
  <variable name="X(2,47,187)" index="261546" value="1"/>
  <variable name="X(2,57,1222)" index="264957" value="1"/>
  <variable name="X(3,4,2235)" index="268346" value="1"/>
  <variable name="X(3,26,98)" index="268585" value="1"/>
  <variable name="X(3,46,195)" index="271058" value="1"/>
  <variable name="X(3,47,1454)" index="274693" value="1"/>
  <variable name="X(3,58,1995)" index="277610" value="1"/>
  <variable name="X(4,1,1993)" index="279984" value="1"/>
  <variable name="X(4,2,1222)" index="281589" value="1"/>
  <variable name="X(4,3,195)" index="282938" value="1"/>
  <variable name="X(4,59,2235)" index="287354" value="1"/>
  <variable name="X(5,6,370)" index="287865" value="1"/>
  <variable name="X(5,8,1770)" index="291641" value="1"/>
  <variable name="X(5,10,1230)" index="293477" value="1"/>
  <variable name="X(5,60,1907)" index="296530" value="1"/>
  <variable name="X(6,5,1230)" index="298229" value="1"/>
  <variable name="X(6,7,201)" index="299576" value="1"/>
  <variable name="X(6,32,370)" index="302121" value="1"/>
  <variable name="X(6,61,2139)" index="306266" value="1"/>
  <variable name="X(7,6,2139)" index="308642" value="1"/>
  <variable name="X(7,14,1183)" index="310062" value="1.0000000000057454"/>
  <variable name="X(7,14,2048)" index="310927" value="-5.7453591531043862e-12"/>
  <variable name="X(7,32,2205)" index="313460" value="1"/>
  <variable name="X(7,49,2372)" index="316003" value="1"/>
  <variable name="X(7,55,1404)" index="317411" value="1"/>
  <variable name="X(7,62,201)" index="318584" value="1"/>
  <variable name="X(7,62,749)" index="319132" value="-9.1930342794446313e-11"/>
  <variable name="X(7,62,2140)" index="320523" value="9.1930342794446313e-11"/>
  <variable name="X(8,5,1907)" index="322666" value="1"/>
  <variable name="X(8,9,375)" index="323510" value="1"/>
  <variable name="X(8,63,1770)" index="327281" value="1"/>
  <variable name="X(9,8,1907)" index="329794" value="1"/>
  <variable name="X(9,10,1924)" index="332187" value="1"/>
  <variable name="X(9,38,375)" index="333014" value="1"/>
  <variable name="X(9,64,1685)" index="336700" value="1"/>
  <variable name="X(10,5,1770)" index="339161" value="1"/>
  <variable name="X(10,9,1685)" index="341452" value="1"/>
  <variable name="X(10,14,1924)" index="344067" value="1"/>
  <variable name="X(10,39,281)" index="344800" value="1.0000000010000001"/>
  <variable name="X(10,39,1614)" index="346133" value="-1.000000082740371e-09"/>
  <variable name="X(10,65,1230)" index="348125" value="1"/>
  <variable name="X(11,12,1498)" index="350769" value="1"/>
  <variable name="X(11,17,1090)" index="352737" value="1"/>
  <variable name="X(11,20,1504)" index="355527" value="1"/>
  <variable name="X(11,66,850)" index="357249" value="1"/>
  <variable name="X(12,11,1090)" index="359865" value="1"/>
  <variable name="X(12,15,852)" index="362003" value="1"/>
  <variable name="X(12,20,669)" index="364196" value="1"/>
  <variable name="X(12,67,1498)" index="367401" value="1"/>
  <variable name="X(13,1,1222)" index="369501" value="1"/>
  <variable name="X(13,27,585)" index="371240" value="1"/>
  <variable name="X(14,7,749)" index="373780" value="-9.1930342794446313e-11"/>
  <variable name="X(14,7,889)" index="373920" value="5.3071426709541215e-11"/>
  <variable name="X(14,7,1683)" index="374714" value="3.8858916084905104e-11"/>
  <variable name="X(14,7,2205)" index="375236" value="1"/>
  <variable name="X(14,10,1685)" index="377092" value="1"/>
  <variable name="X(14,30,1924)" index="379707" value="1"/>
  <variable name="X(14,35,458)" index="380617" value="-1.0475384588722802e-11"/>
  <variable name="X(14,35,769)" index="380928" value="1"/>
  <variable name="X(14,35,867)" index="381026" value="-2.6187806776637577e-12"/>
  <variable name="X(14,35,2212)" index="382371" value="1.0999182623908403e-11"/>
  <variable name="X(14,35,2259)" index="382418" value="2.0949826424781562e-12"/>
  <variable name="X(14,39,1384)" index="383919" value="1"/>
  <variable name="X(14,40,2267)" index="387178" value="1"/>
  <variable name="X(14,51,1074)" index="388361" value="2.0951711972533988e-10"/>
  <variable name="X(14,51,1486)" index="388773" value="1"/>
  <variable name="X(14,51,1531)" index="388818" value="-2.0951711972533988e-10"/>
  <variable name="X(14,69,1183)" index="390846" value="1"/>
  <variable name="X(15,12,1090)" index="393129" value="1"/>
  <variable name="X(15,16,852)" index="395267" value="1"/>
  <variable name="X(15,24,1287)" index="398078" value="1"/>
  <variable name="X(16,15,1287)" index="400454" value="1"/>
  <variable name="X(16,29,725)" index="402268" value="1"/>
  <variable name="X(16,71,852)" index="404771" value="1"/>
  <variable name="X(17,11,1498)" index="407793" value="1"/>
  <variable name="X(17,18,1550)" index="410221" value="1"/>
  <variable name="X(17,25,688)" index="411735" value="1"/>
  <variable name="X(17,25,719)" index="411766" value="-1.0285705341174774e-09"/>
  <variable name="X(17,25,922)" index="411969" value="2.8570451377106387e-11"/>
  <variable name="X(17,25,970)" index="412017" value="1.000000082740371e-09"/>
  <variable name="X(17,36,1059)" index="414482" value="1"/>
  <variable name="X(17,72,1090)" index="416889" value="1"/>
  <variable name="X(18,17,1059)" index="419234" value="1"/>
  <variable name="X(18,19,809)" index="421360" value="1"/>
  <variable name="X(18,73,1550)" index="424477" value="1"/>
  <variable name="X(19,18,1059)" index="426362" value="1"/>
  <variable name="X(19,20,850)" index="428529" value="1"/>
  <variable name="X(19,21,809)" index="430864" value="1"/>
  <variable name="X(19,74,669)" index="433100" value="1"/>
  <variable name="X(20,11,850)" index="435657" value="1"/>
  <variable name="X(20,12,852)" index="438035" value="1"/>
  <variable name="X(20,19,669)" index="440228" value="1"/>
  <variable name="X(20,21,1504)" index="443439" value="1"/>
  <variable name="X(20,75,1311)" index="445622" value="1"/>
  <variable name="X(21,19,1059)" index="447746" value="1"/>
  <variable name="X(21,20,1311)" index="450374" value="1"/>
  <variable name="X(21,22,809)" index="452248" value="1"/>
  <variable name="X(21,76,1504)" index="455319" value="1"/>
  <variable name="X(22,21,1311)" index="457502" value="1"/>
  <variable name="X(22,23,813)" index="459380" value="1"/>
  <variable name="X(22,24,809)" index="461752" value="1"/>
  <variable name="X(22,77,1287)" index="464606" value="1"/>
  <variable name="X(23,22,1311)" index="467006" value="1"/>
  <variable name="X(23,31,813)" index="468884" value="1"/>
  <variable name="X(24,15,1090)" index="471537" value="1"/>
  <variable name="X(24,22,1287)" index="474110" value="1"/>
  <variable name="X(24,79,809)" index="476008" value="1"/>
  <variable name="X(25,17,1550)" index="479125" value="1"/>
  <variable name="X(25,37,128)" index="480079" value="1"/>
  <variable name="X(25,42,688)" index="483015" value="1"/>
  <variable name="X(25,42,922)" index="483249" value="8.5711354131318748e-11"/>
  <variable name="X(25,42,1544)" index="483871" value="-8.5711354131318748e-11"/>
  <variable name="X(25,80,719)" index="485422" value="-2.5714263352936935e-10"/>
  <variable name="X(25,80,1556)" index="486259" value="2.5714263352936935e-10"/>
  <variable name="X(25,80,1874)" index="486577" value="1"/>
  <variable name="X(26,1,98)" index="487177" value="1"/>
  <variable name="X(26,3,1454)" index="490909" value="1"/>
  <variable name="X(26,27,2205)" index="494036" value="1"/>
  <variable name="X(26,32,68)" index="494275" value="1"/>
  <variable name="X(26,34,77)" index="496660" value="1"/>
  <variable name="X(26,81,1242)" index="500201" value="1"/>
  <variable name="X(27,13,1222)" index="502557" value="1"/>
  <variable name="X(27,26,1242)" index="504953" value="1"/>
  <variable name="X(27,34,585)" index="506672" value="1"/>
  <variable name="X(27,82,1738)" index="510201" value="1"/>
  <variable name="X(28,29,1003)" index="511842" value="1"/>
  <variable name="X(28,31,725)" index="513940" value="1"/>
  <variable name="X(28,83,813)" index="516404" value="1"/>
  <variable name="X(29,16,1287)" index="519254" value="1"/>
  <variable name="X(29,28,725)" index="521068" value="1"/>
  <variable name="X(29,84,1003)" index="523722" value="1"/>
  <variable name="X(30,14,1384)" index="526479" value="1"/>
  <variable name="X(30,33,1738)" index="529209" value="1"/>
  <variable name="X(30,35,1745)" index="531592" value="1"/>
  <variable name="X(30,41,84)" index="532307" value="1"/>
  <variable name="X(30,85,1477)" index="536076" value="1"/>
  <variable name="X(31,23,1311)" index="538286" value="1"/>
  <variable name="X(31,28,813)" index="540164" value="1"/>
  <variable name="X(31,86,725)" index="542452" value="1"/>
  <variable name="X(32,6,1230)" index="545333" value="1"/>
  <variable name="X(32,7,1404)" index="547883" value="1"/>
  <variable name="X(32,26,2205)" index="551060" value="1"/>
  <variable name="X(32,33,370)" index="551601" value="1"/>
  <variable name="X(33,30,84)" index="553691" value="1"/>
  <variable name="X(33,32,1404)" index="557387" value="1"/>
  <variable name="X(33,34,867)" index="559226" value="-1.1638928245417149e-12"/>
  <variable name="X(33,34,1479)" index="559838" value="1.1638928245417149e-12"/>
  <variable name="X(33,34,1738)" index="560097" value="1"/>
  <variable name="X(33,35,585)" index="561320" value="1"/>
  <variable name="X(33,88,458)" index="563569" value="-2.6187806776637577e-12"/>
  <variable name="X(33,88,769)" index="563880" value="1"/>
  <variable name="X(33,88,2259)" index="565370" value="2.6187806776637577e-12"/>
  <variable name="X(34,26,1454)" index="566941" value="1"/>
  <variable name="X(34,27,1738)" index="569601" value="1"/>
  <variable name="X(34,33,585)" index="570824" value="1"/>
  <variable name="X(34,89,77)" index="572692" value="1"/>
  <variable name="X(34,89,867)" index="573482" value="-1.1638928245417149e-12"/>
  <variable name="X(34,89,1479)" index="574094" value="1.1638928245417149e-12"/>
  <variable name="X(35,14,1486)" index="576477" value="1"/>
  <variable name="X(35,30,1477)" index="578844" value="1"/>
  <variable name="X(35,33,458)" index="580201" value="-2.6187806776637577e-12"/>
  <variable name="X(35,33,769)" index="580512" value="1"/>
  <variable name="X(35,33,867)" index="580610" value="-8.7289779596138728e-13"/>
  <variable name="X(35,33,1479)" index="581222" value="3.4916784736251445e-12"/>
  <variable name="X(35,90,1745)" index="583864" value="1"/>
  <variable name="X(36,17,1498)" index="585993" value="1"/>
  <variable name="X(36,37,1517)" index="588388" value="1"/>
  <variable name="X(36,42,1496)" index="590743" value="4.9998789910690715e-10"/>
  <variable name="X(36,42,1522)" index="590769" value="0.99999999997142952"/>
  <variable name="X(36,42,1531)" index="590778" value="-4.7141744772980087e-10"/>
  <variable name="X(36,91,1566)" index="593189" value="1"/>
  <variable name="X(37,25,1544)" index="595543" value="-2.5714263352936935e-10"/>
  <variable name="X(37,25,1550)" index="595549" value="1"/>
  <variable name="X(37,25,1556)" index="595555" value="2.5714263352936935e-10"/>
  <variable name="X(37,36,1566)" index="597941" value="1"/>
  <variable name="X(37,92,128)" index="598879" value="1"/>
  <variable name="X(38,9,1907)" index="603034" value="1"/>
  <variable name="X(38,45,381)" index="603884" value="1"/>
  <variable name="X(38,93,375)" index="606254" value="1"/>
  <variable name="X(39,10,1770)" index="610025" value="1"/>
  <variable name="X(39,14,749)" index="611380" value="-5.515710253461708e-11"/>
  <variable name="X(39,14,769)" index="611400" value="1"/>
  <variable name="X(39,14,889)" index="611520" value="2.1229101398083588e-10"/>
  <variable name="X(39,14,1531)" index="612162" value="-1.5713391144621878e-10"/>
  <variable name="X(39,40,688)" index="613695" value="1"/>
  <variable name="X(39,42,281)" index="615664" value="1"/>
  <variable name="X(39,94,1748)" index="619507" value="1"/>
  <variable name="X(40,14,1685)" index="621820" value="1"/>
  <variable name="X(40,39,1748)" index="624259" value="1"/>
  <variable name="X(40,41,2267)" index="627154" value="1"/>
  <variable name="X(40,95,688)" index="627951" value="1"/>
  <variable name="X(41,30,1745)" index="631384" value="1"/>
  <variable name="X(41,40,1748)" index="633763" value="1"/>
  <variable name="X(41,96,84)" index="634475" value="1"/>
  <variable name="X(42,25,1874)" index="638641" value="1"/>
  <variable name="X(42,36,2213)" index="641356" value="1"/>
  <variable name="X(42,39,688)" index="642207" value="1"/>
  <variable name="X(42,39,749)" index="642268" value="-2.2063392584872187e-10"/>
  <variable name="X(42,39,889)" index="642408" value="8.4918528502474193e-10"/>
  <variable name="X(42,39,1496)" index="643015" value="-4.9998789910690715e-10"/>
  <variable name="X(42,39,1531)" index="643050" value="-4.7141744772980087e-10"/>
  <variable name="X(42,39,1544)" index="643063" value="3.4285398766068809e-10"/>
  <variable name="X(42,43,281)" index="644176" value="1"/>
  <variable name="X(42,97,922)" index="647193" value="2.8570451377106284e-11"/>
  <variable name="X(42,97,1522)" index="647793" value="0.99999999997142952"/>
  <variable name="X(43,42,1874)" index="650521" value="1"/>
  <variable name="X(43,44,970)" index="651993" value="1"/>
  <variable name="X(43,98,281)" index="653680" value="1"/>
  <variable name="X(44,43,1874)" index="657649" value="1"/>
  <variable name="X(44,45,970)" index="659121" value="1"/>
  <variable name="X(44,99,381)" index="660908" value="1"/>
  <variable name="X(45,38,1907)" index="664810" value="1"/>
  <variable name="X(45,44,381)" index="665660" value="1"/>
  <variable name="X(45,100,970)" index="668625" value="1"/>
  <variable name="X(46,3,2235)" index="672266" value="1"/>
  <variable name="X(46,54,2032)" index="674439" value="1"/>
  <variable name="X(46,55,195)" index="674978" value="1"/>
  <variable name="X(46,101,1404)" index="678563" value="1"/>
  <variable name="X(47,2,1993)" index="681528" value="1"/>
  <variable name="X(47,3,1995)" index="683906" value="1"/>
  <variable name="X(47,102,187)" index="684474" value="1"/>
  <variable name="X(48,49,2048)" index="688711" value="-9.1930342794446313e-11"/>
  <variable name="X(48,49,2078)" index="688741" value="1.0000000000919302"/>
  <variable name="X(48,50,2082)" index="691121" value="1"/>
  <variable name="X(48,103,2273)" index="693688" value="1"/>
  <variable name="X(49,7,2048)" index="695839" value="-2.2982011148332863e-11"/>
  <variable name="X(49,7,2061)" index="695852" value="-6.8948331646113443e-11"/>
  <variable name="X(49,7,2139)" index="695930" value="1"/>
  <variable name="X(49,7,2140)" index="695931" value="9.1930342794446313e-11"/>
  <variable name="X(49,48,2370)" index="698537" value="1"/>
  <variable name="X(49,50,2372)" index="700915" value="1"/>
  <variable name="X(49,104,2078)" index="702997" value="1.0000000000919302"/>
  <variable name="X(49,104,2226)" index="703145" value="-9.1930342794446313e-11"/>
  <variable name="X(50,48,2273)" index="705568" value="1"/>
  <variable name="X(50,49,2139)" index="707810" value="1"/>
  <variable name="X(50,49,2140)" index="707811" value="9.1930342794446313e-11"/>
  <variable name="X(50,49,2226)" index="707897" value="-9.1930342794446313e-11"/>
  <variable name="X(50,51,2082)" index="710129" value="1"/>
  <variable name="X(50,105,2372)" index="712795" value="1"/>
  <variable name="X(51,14,2212)" index="715011" value="4.3997830413896018e-11"/>
  <variable name="X(51,14,2259)" index="715058" value="8.380140068176875e-12"/>
  <variable name="X(51,14,2267)" index="715066" value="1"/>
  <variable name="X(51,14,2269)" index="715068" value="-5.2377970482072901e-11"/>
  <variable name="X(51,50,2273)" index="717448" value="1"/>
  <variable name="X(51,52,883)" index="718434" value="1"/>
  <variable name="X(51,53,2082)" index="722009" value="1"/>
  <variable name="X(51,54,1486)" index="723789" value="1"/>
  <variable name="X(51,106,1531)" index="726210" value="-2.0951711972533988e-10"/>
  <variable name="X(51,106,2032)" index="726711" value="1"/>
  <variable name="X(51,106,2276)" index="726955" value="2.0951711972533988e-10"/>
  <variable name="X(52,51,2269)" index="729324" value="-2.0951711972533988e-10"/>
  <variable name="X(52,51,2273)" index="729328" value="1"/>
  <variable name="X(52,51,2276)" index="729331" value="2.0951711972533988e-10"/>
  <variable name="X(52,54,2235)" index="731666" value="1"/>
  <variable name="X(52,107,883)" index="732690" value="1"/>
  <variable name="X(53,108,2082)" index="736265" value="1"/>
  <variable name="X(54,46,2235)" index="738794" value="1"/>
  <variable name="X(54,51,2032)" index="740967" value="1"/>
  <variable name="X(54,52,94)" index="741405" value="1"/>
  <variable name="X(54,109,1486)" index="745173" value="1"/>
  <variable name="X(55,7,2372)" index="748435" value="1"/>
  <variable name="X(55,46,1404)" index="749843" value="1"/>
  <variable name="X(55,110,195)" index="751010" value="1"/>
  <variable name="C(77,26)" index="753819" value="1"/>
  <variable name="C(77,34)" index="753820" value="2"/>
  <variable name="C(84,30)" index="753881" value="1"/>
  <variable name="C(84,41)" index="753882" value="2"/>
  <variable name="C(98,26)" index="753980" value="1"/>
  <variable name="C(98,1)" index="753981" value="2"/>
  <variable name="C(128,37)" index="754222" value="0.99999999999999978"/>
  <variable name="C(187,47)" index="754663" value="1"/>
  <variable name="C(195,3)" index="754704" value="1"/>
  <variable name="C(195,46)" index="754705" value="2"/>
  <variable name="C(195,55)" index="754706" value="3"/>
  <variable name="C(201,7)" index="754734" value="1"/>
  <variable name="C(281,39)" index="755217" value="1.0000000010000001"/>
  <variable name="C(281,42)" index="755218" value="2.0000000010000001"/>
  <variable name="C(281,43)" index="755219" value="3.0000000010000001"/>
  <variable name="C(370,6)" index="755731" value="1"/>
  <variable name="C(370,32)" index="755732" value="2"/>
  <variable name="C(375,9)" index="755759" value="1"/>
  <variable name="C(375,38)" index="755760" value="2"/>
  <variable name="C(381,45)" index="755790" value="1"/>
  <variable name="C(381,44)" index="755791" value="1.9999999999999991"/>
  <variable name="C(458,35)" index="756255" value="-1.0475384588722802e-11"/>
  <variable name="C(458,33)" index="756256" value="-1.0475122710655031e-11"/>
  <variable name="C(585,13)" index="757130" value="1"/>
  <variable name="C(585,27)" index="757131" value="2"/>
  <variable name="C(585,34)" index="757132" value="3"/>
  <variable name="C(585,33)" index="757133" value="4"/>
  <variable name="C(669,20)" index="757637" value="1"/>
  <variable name="C(669,19)" index="757638" value="2"/>
  <variable name="C(688,25)" index="757762" value="1"/>
  <variable name="C(688,42)" index="757763" value="2"/>
  <variable name="C(688,39)" index="757764" value="3"/>
  <variable name="C(688,40)" index="757765" value="4"/>
  <variable name="C(719,25)" index="758044" value="-1.0285705341174774e-09"/>
  <variable name="C(725,29)" index="758086" value="1"/>
  <variable name="C(725,28)" index="758087" value="2"/>
  <variable name="C(725,31)" index="758088" value="3"/>
  <variable name="C(749,39)" index="758313" value="-2.2063392584872187e-10"/>
  <variable name="C(749,14)" index="758314" value="-2.7579102838333895e-10"/>
  <variable name="C(749,7)" index="758315" value="-3.6772137117778525e-10"/>
  <variable name="C(769,14)" index="758415" value="1"/>
  <variable name="C(769,35)" index="758416" value="2"/>
  <variable name="C(769,33)" index="758417" value="3"/>
  <variable name="C(809,19)" index="758655" value="1"/>
  <variable name="C(809,21)" index="758656" value="2"/>
  <variable name="C(809,22)" index="758657" value="3"/>
  <variable name="C(809,24)" index="758658" value="4"/>
  <variable name="C(813,23)" index="758685" value="1"/>
  <variable name="C(813,31)" index="758686" value="2"/>
  <variable name="C(813,28)" index="758687" value="3"/>
  <variable name="C(850,20)" index="758968" value="1"/>
  <variable name="C(850,11)" index="758969" value="2"/>
  <variable name="C(852,12)" index="758975" value="1"/>
  <variable name="C(852,15)" index="758976" value="2"/>
  <variable name="C(852,16)" index="758977" value="3"/>
  <variable name="C(867,35)" index="759060" value="-2.6187806776637577e-12"/>
  <variable name="C(867,33)" index="759061" value="-3.4916784736251449e-12"/>
  <variable name="C(867,34)" index="759062" value="-4.6555712981668596e-12"/>
  <variable name="C(883,52)" index="759181" value="1"/>
  <variable name="C(889,39)" index="759238" value="8.4918528502474193e-10"/>
  <variable name="C(889,14)" index="759239" value="2.1229101398083588e-10"/>
  <variable name="C(922,25)" index="759448" value="2.8570451377106387e-11"/>
  <variable name="C(922,42)" index="759449" value="1.1428180550842514e-10"/>
  <variable name="C(970,25)" index="759825" value="1.000000082740371e-09"/>
  <variable name="C(970,42)" index="759826" value="1.000000082740371e-09"/>
  <variable name="C(970,43)" index="759827" value="1.000000082740371e-09"/>
  <variable name="C(970,44)" index="759828" value="1.0000000010000001"/>
  <variable name="C(970,45)" index="759829" value="2.0000000010000001"/>
  <variable name="C(1003,29)" index="760107" value="1"/>
  <variable name="C(1059,19)" index="760614" value="1"/>
  <variable name="C(1059,18)" index="760615" value="2"/>
  <variable name="C(1059,17)" index="760616" value="3"/>
  <variable name="C(1074,51)" index="760781" value="8.3806847890135953e-10"/>
  <variable name="C(1090,15)" index="760943" value="1"/>
  <variable name="C(1090,12)" index="760944" value="2"/>
  <variable name="C(1090,11)" index="760945" value="3"/>
  <variable name="C(1090,17)" index="760946" value="4"/>
  <variable name="C(1183,14)" index="761541" value="1.0000000000057454"/>
  <variable name="C(1222,13)" index="761803" value="1"/>
  <variable name="C(1222,1)" index="761804" value="2"/>
  <variable name="C(1222,4)" index="761805" value="2.9999999999999991"/>
  <variable name="C(1222,2)" index="761806" value="4"/>
  <variable name="C(1230,6)" index="761843" value="1"/>
  <variable name="C(1230,5)" index="761844" value="2"/>
  <variable name="C(1230,10)" index="761845" value="3"/>
  <variable name="C(1242,26)" index="761968" value="1"/>
  <variable name="C(1287,16)" index="762320" value="1"/>
  <variable name="C(1287,15)" index="762321" value="2"/>
  <variable name="C(1287,24)" index="762322" value="3"/>
  <variable name="C(1287,22)" index="762323" value="4"/>
  <variable name="C(1311,23)" index="762564" value="1"/>
  <variable name="C(1311,22)" index="762565" value="2"/>
  <variable name="C(1311,21)" index="762566" value="3"/>
  <variable name="C(1311,20)" index="762567" value="4"/>
  <variable name="C(1384,14)" index="763015" value="1"/>
  <variable name="C(1404,32)" index="763136" value="1"/>
  <variable name="C(1404,7)" index="763137" value="2"/>
  <variable name="C(1404,55)" index="763138" value="3"/>
  <variable name="C(1404,46)" index="763139" value="4"/>
  <variable name="C(1454,26)" index="763460" value="1"/>
  <variable name="C(1454,3)" index="763461" value="2"/>
  <variable name="C(1477,30)" index="763592" value="1"/>
  <variable name="C(1479,33)" index="763596" value="3.4916784736251445e-12"/>
  <variable name="C(1479,34)" index="763597" value="4.6555712981668596e-12"/>
  <variable name="C(1486,14)" index="763626" value="1"/>
  <variable name="C(1486,51)" index="763627" value="2"/>
  <variable name="C(1486,54)" index="763628" value="3"/>
  <variable name="C(1496,42)" index="763692" value="4.9998789910690715e-10"/>
  <variable name="C(1498,17)" index="763699" value="1"/>
  <variable name="C(1498,11)" index="763700" value="2"/>
  <variable name="C(1498,12)" index="763701" value="3"/>
  <variable name="C(1504,20)" index="763724" value="1"/>
  <variable name="C(1504,21)" index="763725" value="2"/>
  <variable name="C(1522,42)" index="763823" value="0.99999999997142952"/>
  <variable name="C(1531,42)" index="763872" value="-4.7141744772980087e-10"/>
  <variable name="C(1531,39)" index="763873" value="-4.7141744772980087e-10"/>
  <variable name="C(1531,14)" index="763874" value="-6.2855135917601967e-10"/>
  <variable name="C(1531,51)" index="763875" value="-8.3806847890135953e-10"/>
  <variable name="C(1544,25)" index="763966" value="-2.5714263352936935e-10"/>
  <variable name="C(1544,42)" index="763967" value="-3.4285398766068809e-10"/>
  <variable name="C(1550,25)" index="763996" value="1"/>
  <variable name="C(1550,17)" index="763997" value="2"/>
  <variable name="C(1550,18)" index="763998" value="3"/>
  <variable name="C(1556,25)" index="764030" value="2.5714263352936935e-10"/>
  <variable name="C(1566,36)" index="764102" value="1"/>
  <variable name="C(1683,7)" index="764787" value="3.8858916084905104e-11"/>
  <variable name="C(1683,6)" index="764788" value="3.8858916084905104e-11"/>
  <variable name="C(1685,14)" index="764793" value="1"/>
  <variable name="C(1685,10)" index="764794" value="2"/>
  <variable name="C(1685,9)" index="764795" value="3"/>
  <variable name="C(1738,33)" index="765108" value="1"/>
  <variable name="C(1738,34)" index="765109" value="2"/>
  <variable name="C(1738,27)" index="765110" value="3"/>
  <variable name="C(1745,30)" index="765156" value="1"/>
  <variable name="C(1745,35)" index="765157" value="2"/>
  <variable name="C(1748,40)" index="765170" value="1"/>
  <variable name="C(1748,39)" index="765171" value="2"/>
  <variable name="C(1770,10)" index="765288" value="1"/>
  <variable name="C(1770,5)" index="765289" value="2"/>
  <variable name="C(1770,8)" index="765290" value="3"/>
  <variable name="C(1874,43)" index="765891" value="1"/>
  <variable name="C(1874,42)" index="765892" value="2"/>
  <variable name="C(1874,25)" index="765893" value="3"/>
  <variable name="C(1907,38)" index="766118" value="1"/>
  <variable name="C(1907,9)" index="766119" value="2"/>
  <variable name="C(1907,8)" index="766120" value="3"/>
  <variable name="C(1907,5)" index="766121" value="4"/>
  <variable name="C(1924,10)" index="766249" value="1"/>
  <variable name="C(1924,14)" index="766250" value="2"/>
  <variable name="C(1993,2)" index="766691" value="1"/>
  <variable name="C(1993,4)" index="766692" value="2"/>
  <variable name="C(1995,3)" index="766697" value="1"/>
  <variable name="C(2032,54)" index="767011" value="1"/>
  <variable name="C(2032,51)" index="767012" value="2"/>
  <variable name="C(2048,49)" index="767098" value="-9.1930342794446313e-11"/>
  <variable name="C(2048,7)" index="767099" value="-2.2982011148332863e-11"/>
  <variable name="C(2078,49)" index="767344" value="1.0000000000919302"/>
  <variable name="C(2082,50)" index="767355" value="1"/>
  <variable name="C(2082,51)" index="767356" value="2"/>
  <variable name="C(2082,53)" index="767357" value="3"/>
  <variable name="C(2139,49)" index="767694" value="1"/>
  <variable name="C(2139,7)" index="767695" value="2"/>
  <variable name="C(2139,6)" index="767696" value="3"/>
  <variable name="C(2140,49)" index="767698" value="9.1930342794446313e-11"/>
  <variable name="C(2140,7)" index="767699" value="1.8386068558889263e-10"/>
  <variable name="C(2205,7)" index="768107" value="1"/>
  <variable name="C(2205,32)" index="768108" value="2"/>
  <variable name="C(2205,26)" index="768109" value="3"/>
  <variable name="C(2212,14)" index="768159" value="4.3997830413896018e-11"/>
  <variable name="C(2212,35)" index="768160" value="1.0999182623908403e-11"/>
  <variable name="C(2226,49)" index="768221" value="-9.1930342794446313e-11"/>
  <variable name="C(2235,54)" index="768251" value="1"/>
  <variable name="C(2235,46)" index="768252" value="2"/>
  <variable name="C(2235,3)" index="768253" value="3"/>
  <variable name="C(2235,4)" index="768254" value="4"/>
  <variable name="C(2259,14)" index="768438" value="8.380140068176875e-12"/>
  <variable name="C(2259,35)" index="768439" value="1.0475122710655031e-11"/>
  <variable name="C(2259,33)" index="768440" value="1.0475122710655031e-11"/>
  <variable name="C(2267,14)" index="768480" value="1"/>
  <variable name="C(2267,40)" index="768481" value="2"/>
  <variable name="C(2269,51)" index="768489" value="-2.0951711972533988e-10"/>
  <variable name="C(2269,14)" index="768490" value="-5.2377970482072901e-11"/>
  <variable name="C(2273,51)" index="768512" value="1"/>
  <variable name="C(2273,50)" index="768513" value="2"/>
  <variable name="C(2273,48)" index="768514" value="3"/>
  <variable name="C(2276,51)" index="768523" value="2.0951711972533988e-10"/>
  <variable name="C(2372,7)" index="769097" value="1"/>
  <variable name="C(2372,49)" index="769098" value="2"/>
  <variable name="C(2372,50)" index="769099" value="3"/>
 </variables>
</CPLEXSolution>
